1,1,3,2,5,4,9,3,6,3,4,3,8,3,10,5,7,3,2,5;5,1,3,1,8,1,2,1,9,4,10,4,7,2,4,5,6,5,1,5;9,1,4,1,6,2,10,1,7,1,1,2,2,4,3,5,5,5,8,5;5,2,6,1,3,3,8,2,2,2,10,3,4,4,9,5,1,3,7,4;5,3,9,2,3,4,4,2,10,2,2,3,6,4,8,4,1,4,7,5;
